Route #1: 0 41 31 33 12 38 38 9 23 4 35 0
Route #2: 0 29 1 26 46 0
Route #3: 0 47 22 13 39 27 24 43 14 18 7 0
Route #4: 0 25 30 3 42 16 10 0
Route #5: 0 34 49 44 19 17 2 40 15 6 0
Route #6: 0 28 48 32 0
Route #7: 0 21 37 11 8 20 5 36 45 0
Cost 801:
